sat
(:eliminated-vars              1
 :max-memory                   18.05
 :memory                       18.05
 :nlsat-irrational-assignments 2
 :nlsat-propagations           9
 :nlsat-stages                 4
 :num-allocs                   22746
 :rlimit-count                 2708
 :time                         0.00)
